n_res = 4;
rcap = [35, 32, 81, 89];
rtype = [1, 1, 2, 2];
n_tasks = 16;
modes = [ {1}, {2}, {3}, {4}, {5}, {6}, {7}, {8}, {9}, {10}, {11}, {12}, {13}, {14}, {15}, {16} ];
succ = [ {8, 15, 16}, {7, 9, 14}, {4, 5, 6}, {8, 12, 13}, {8, 12, 16}, {10, 13}, {10, 11}, {14}, {10, 11, 16}, {12}, {13}, {15}, {15}, {}, {}, {} ];
n_opt = 16;
dur = [7, 1, 3, 6, 8, 7, 7, 2, 4, 5, 4, 2, 3, 5, 7, 9];
rreq = [|  4,  6, 10,  6,  2,  7,  9,  9,  7,  9,  2,  9,  8,  2,  9,  9
        |  6,  6,  5,  6,  5,  5,  3,  3,  7,  6,  4, 10,  7,  2,  2,  9
        |  6,  5,  5,  8,  4,  3,  6,  8,  3,  4,  5,  4,  6,  7,  4,  3
        |  4,  7, 10,  9,  6,  2,  2,  8,  5,  7,  7,  6,  4,  7,  3,  2 |];
